TCS_Benchmarks/redos_fix/corpus2_output_distinct_4790_4789_25_0.txt
(.+)(\s+)
(.+)(: (.+): line (\d+), column (\d+):)(\s+)